
n_res = 6;
rcap = [78, 92, 817, 797, 986, 858];
rtype = [1, 1, 2, 2, 2, 2];
n_tasks = 50;
modes =  [{1, 2, 3, 4, 5, 6, 7, 8, 9}, {10, 11, 12, 13, 14, 15, 16, 17, 18}, {19, 20, 21, 22, 23, 24, 25, 26, 27}, {28, 29, 30, 31, 32, 33, 34, 35, 36}, {37, 38, 39, 40, 41, 42, 43, 44, 45}, {46, 47, 48, 49, 50, 51, 52, 53, 54}, {55, 56, 57, 58, 59, 60, 61, 62, 63}, {64, 65, 66, 67, 68, 69, 70, 71, 72}, {73, 74, 75, 76, 77, 78, 79, 80, 81}, {82, 83, 84, 85, 86, 87, 88, 89, 90}, {91, 92, 93, 94, 95, 96, 97, 98, 99}, {100, 101, 102, 103, 104, 105, 106, 107, 108}, {109, 110, 111, 112, 113, 114, 115, 116, 117}, {118, 119, 120, 121, 122, 123, 124, 125, 126}, {127, 128, 129, 130, 131, 132, 133, 134, 135}, {136, 137, 138, 139, 140, 141, 142, 143, 144}, {145, 146, 147, 148, 149, 150, 151, 152, 153}, {154, 155, 156, 157, 158, 159, 160, 161, 162}, {163, 164, 165, 166, 167, 168, 169, 170, 171}, {172, 173, 174, 175, 176, 177, 178, 179, 180}, {181, 182, 183, 184, 185, 186, 187, 188, 189}, {190, 191, 192, 193, 194, 195, 196, 197, 198}, {199, 200, 201, 202, 203, 204, 205, 206, 207}, {208, 209, 210, 211, 212, 213, 214, 215, 216}, {217, 218, 219, 220, 221, 222, 223, 224, 225}, {226, 227, 228, 229, 230, 231, 232, 233, 234}, {235, 236, 237, 238, 239, 240, 241, 242, 243}, {244, 245, 246, 247, 248, 249, 250, 251, 252}, {253, 254, 255, 256, 257, 258, 259, 260, 261}, {262, 263, 264, 265, 266, 267, 268, 269, 270}, {271, 272, 273, 274, 275, 276, 277, 278, 279}, {280, 281, 282, 283, 284, 285, 286, 287, 288}, {289, 290, 291, 292, 293, 294, 295, 296, 297}, {298, 299, 300, 301, 302, 303, 304, 305, 306}, {307, 308, 309, 310, 311, 312, 313, 314, 315}, {316, 317, 318, 319, 320, 321, 322, 323, 324}, {325, 326, 327, 328, 329, 330, 331, 332, 333}, {334, 335, 336, 337, 338, 339, 340, 341, 342}, {343, 344, 345, 346, 347, 348, 349, 350, 351}, {352, 353, 354, 355, 356, 357, 358, 359, 360}, {361, 362, 363, 364, 365, 366, 367, 368, 369}, {370, 371, 372, 373, 374, 375, 376, 377, 378}, {379, 380, 381, 382, 383, 384, 385, 386, 387}, {388, 389, 390, 391, 392, 393, 394, 395, 396}, {397, 398, 399, 400, 401, 402, 403, 404, 405}, {406, 407, 408, 409, 410, 411, 412, 413, 414}, {415, 416, 417, 418, 419, 420, 421, 422, 423}, {424, 425, 426, 427, 428, 429, 430, 431, 432}, {433, 434, 435, 436, 437, 438, 439, 440, 441}, {442, 443, 444, 445, 446, 447, 448, 449, 450}];
succ =  [{17, 16, 14, 12, 7}, {11, 7, 5}, {12, 11, 5}, {5}, {23, 20, 17, 15, 14, 13}, {23, 15, 14, 13, 11}, {23, 15, 10}, {23, 10}, {12, 11}, {25, 20, 19, 13}, {32, 27, 25, 21, 17}, {27, 25, 19, 18}, {27, 22, 21, 18}, {27, 25, 19}, {32, 30, 29, 26, 21}, {22, 18}, {33, 30, 26, 22}, {33, 32, 29, 26, 24}, {32, 30, 21}, {33, 32, 30, 24}, {33, 24}, {29, 24}, {33, 31, 26}, {41, 35, 28}, {41, 35, 28}, {42, 41, 39, 37, 35, 34}, {41, 35, 31}, {39, 31}, {35, 31}, {39, 31}, {42, 37, 36, 34}, {39, 37, 36, 34}, {42, 40, 38, 37, 36}, {40, 38}, {43, 36}, {50, 49, 48, 45, 44}, {49, 48, 46, 45, 44}, {49, 48, 45, 43}, {48, 46, 45, 43}, {50, 48, 46, 44}, {50, 49, 43}, {48, 44}, {44}, {47}, {47}, {47}, {}, {}, {}, {}];
n_opt = 450;
dur = [3, 8, 18, 19, 21, 22, 24, 27, 28, 4, 6, 7, 11, 14, 21, 22, 26, 30, 1, 2, 3, 5, 6, 7, 20, 23, 26, 4, 5, 9, 11, 18, 22, 23, 28, 30, 3, 8, 12, 13, 14, 20, 21, 23, 30, 10, 11, 18, 19, 20, 22, 24, 26, 28, 7, 8, 10, 13, 16, 18, 25, 26, 29, 5, 8, 15, 17, 20, 22, 24, 28, 29, 4, 5, 8, 17, 18, 19, 23, 24, 27, 2, 5, 9, 10, 22, 23, 25, 28, 29, 2, 5, 10, 12, 14, 15, 16, 24, 25, 4, 5, 9, 10, 13, 19, 20, 26, 27, 2, 3, 5, 8, 12, 13, 14, 18, 27, 2, 4, 7, 12, 15, 17, 18, 23, 27, 3, 4, 6, 8, 9, 12, 14, 22, 27, 1, 9, 10, 11, 14, 16, 24, 25, 27, 4, 7, 8, 13, 14, 16, 18, 22, 28, 4, 6, 7, 10, 15, 18, 25, 26, 30, 2, 3, 5, 13, 14, 20, 22, 25, 30, 3, 5, 13, 16, 17, 21, 25, 26, 28, 1, 7, 8, 9, 10, 14, 16, 24, 25, 8, 11, 14, 18, 19, 21, 22, 25, 28, 1, 7, 9, 10, 11, 14, 15, 16, 19, 1, 4, 5, 6, 12, 18, 22, 23, 29, 2, 5, 8, 14, 23, 24, 25, 26, 28, 6, 8, 14, 15, 16, 17, 25, 29, 30, 4, 7, 11, 13, 14, 17, 18, 24, 25, 1, 3, 4, 6, 7, 9, 18, 19, 26, 7, 8, 9, 12, 14, 20, 21, 22, 23, 5, 10, 14, 18, 20, 24, 25, 26, 28, 1, 2, 3, 6, 18, 23, 25, 28, 30, 4, 5, 8, 10, 11, 13, 17, 29, 30, 3, 6, 7, 8, 10, 12, 18, 20, 28, 6, 10, 11, 13, 14, 18, 21, 26, 27, 2, 3, 4, 5, 7, 11, 12, 24, 28, 4, 6, 13, 14, 15, 16, 17, 18, 25, 3, 8, 10, 17, 21, 22, 23, 24, 27, 1, 3, 4, 6, 13, 23, 24, 25, 30, 2, 3, 6, 10, 15, 16, 20, 24, 29, 2, 5, 6, 8, 12, 21, 22, 28, 30, 1, 9, 12, 15, 17, 19, 24, 28, 29, 6, 9, 10, 11, 15, 19, 23, 24, 28, 3, 5, 8, 14, 19, 21, 26, 27, 28, 1, 3, 9, 10, 13, 14, 16, 20, 23, 2, 7, 13, 16, 17, 21, 23, 27, 29, 1, 2, 8, 14, 16, 17, 19, 21, 26, 10, 11, 14, 17, 18, 19, 21, 24, 25, 3, 5, 14, 16, 18, 20, 22, 23, 25, 3, 5, 8, 10, 18, 19, 24, 26, 30, 3, 4, 5, 17, 18, 21, 25, 28, 30];
rreq = [|22, 20, 20, 19, 17, 17, 16, 14, 13, 11, 10, 10, 10, 9, 9, 9, 9, 9, 9, 9, 9, 9, 9, 9, 9, 9, 9, 13, 11, 11, 11, 10, 10, 9, 8, 8, 12, 11, 11, 11, 11, 11, 11, 11, 11, 5, 5, 4, 4, 3, 3, 3, 2, 2, 14, 12, 9, 9, 7, 6, 3, 2, 1, 18, 17, 16, 16, 15, 15, 14, 14, 13, 29, 28, 25, 23, 20, 20, 18, 15, 13, 22, 20, 20, 20, 19, 19, 18, 18, 17, 2, 2, 2, 2, 2, 2, 2, 2, 2, 28, 25, 24, 21, 18, 17, 16, 14, 10, 29, 28, 28, 27, 25, 24, 24, 22, 22, 16, 15, 15, 14, 13, 11, 10, 9, 9, 14, 14, 14, 13, 13, 13, 12, 12, 12, 23, 21, 20, 17, 16, 14, 12, 8, 6, 28, 28, 28, 27, 27, 26, 26, 25, 25, 22, 22, 22, 22, 21, 21, 21, 20, 20, 22, 20, 20, 18, 17, 17, 16, 15, 14, 17, 17, 14, 12, 11, 10, 9, 7, 6, 15, 14, 13, 13, 12, 11, 11, 11, 10, 26, 24, 21, 20, 20, 18, 15, 14, 13, 11, 10, 10, 10, 9, 9, 9, 9, 9, 16, 16, 16, 16, 15, 15, 14, 14, 14, 16, 15, 15, 14, 14, 13, 13, 12, 11, 11, 11, 10, 8, 7, 6, 5, 4, 4, 15, 15, 15, 14, 13, 13, 12, 12, 12, 15, 15, 15, 15, 15, 14, 14, 14, 14, 23, 20, 18, 17, 14, 12, 10, 6, 4, 15, 13, 13, 13, 12, 11, 10, 10, 9, 26, 24, 24, 23, 23, 22, 21, 21, 20, 15, 14, 14, 13, 10, 9, 8, 8, 6, 29, 29, 29, 29, 29, 29, 29, 29, 29, 18, 16, 15, 11, 10, 7, 5, 5, 3, 10, 8, 8, 7, 6, 4, 4, 3, 2, 27, 26, 24, 24, 21, 21, 19, 17, 17, 13, 11, 10, 10, 7, 6, 4, 4, 2, 15, 13, 13, 12, 9, 8, 8, 7, 5, 30, 26, 25, 24, 23, 20, 19, 16, 15, 26, 24, 24, 19, 17, 16, 14, 9, 9, 14, 14, 13, 11, 10, 9, 9, 7, 6, 14, 13, 13, 11, 10, 9, 7, 5, 5, 21, 21, 21, 21, 21, 20, 20, 20, 20, 9, 9, 9, 9, 9, 8, 8, 8, 8, 18, 16, 15, 11, 11, 7, 5, 4, 3, 15, 14, 12, 11, 11, 10, 9, 8, 6, 16, 14, 14, 13, 12, 11, 10, 10, 9, 27, 25, 23, 23, 19, 18, 15, 12, 10, 17, 16, 15, 13, 13, 12, 11, 10, 10, 20, 17, 17, 14, 13, 12, 10, 7, 5
 |25, 24, 24, 24, 24, 23, 23, 23, 23, 27, 25, 23, 20, 19, 17, 15, 13, 12, 14, 14, 14, 13, 13, 13, 12, 12, 12, 21, 21, 17, 16, 13, 13, 9, 9, 6, 18, 17, 16, 16, 14, 14, 13, 12, 10, 27, 26, 24, 23, 21, 21, 19, 19, 17, 22, 21, 18, 17, 16, 13, 12, 8, 6, 19, 18, 16, 15, 15, 14, 12, 12, 11, 22, 22, 22, 22, 22, 22, 22, 22, 22, 27, 24, 23, 21, 19, 17, 17, 15, 13, 28, 27, 27, 27, 27, 27, 27, 27, 27, 29, 27, 26, 25, 25, 24, 23, 23, 22, 21, 20, 20, 20, 20, 19, 19, 19, 19, 11, 9, 9, 9, 8, 7, 7, 6, 6, 28, 27, 26, 24, 23, 22, 22, 19, 18, 19, 18, 15, 14, 13, 11, 10, 6, 5, 20, 19, 19, 18, 16, 14, 12, 11, 10, 18, 17, 14, 14, 11, 10, 10, 8, 7, 22, 22, 20, 19, 18, 18, 17, 15, 15, 19, 18, 18, 18, 17, 17, 16, 16, 16, 14, 14, 13, 11, 11, 10, 8, 8, 7, 6, 5, 5, 5, 5, 4, 4, 4, 4, 22, 22, 22, 21, 21, 21, 21, 20, 20, 19, 17, 14, 11, 10, 8, 5, 3, 1, 28, 25, 25, 24, 21, 20, 19, 19, 17, 12, 11, 11, 10, 10, 10, 9, 9, 8, 19, 17, 15, 13, 13, 11, 8, 8, 6, 28, 26, 24, 23, 22, 20, 20, 18, 16, 24, 22, 19, 16, 13, 11, 8, 8, 5, 24, 22, 22, 22, 21, 21, 20, 20, 19, 20, 19, 19, 19, 19, 19, 19, 19, 19, 27, 25, 23, 21, 18, 14, 12, 11, 8, 29, 29, 28, 26, 26, 25, 24, 23, 23, 15, 13, 12, 11, 11, 10, 9, 7, 7, 5, 4, 4, 4, 4, 4, 4, 4, 4, 17, 16, 15, 11, 9, 8, 5, 4, 3, 27, 27, 24, 24, 22, 20, 17, 17, 15, 1, 1, 1, 1, 1, 1, 1, 1, 1, 18, 17, 17, 15, 15, 14, 13, 12, 10, 17, 15, 13, 12, 10, 10, 9, 7, 5, 20, 17, 16, 13, 13, 10, 7, 7, 5, 15, 13, 13, 12, 10, 9, 8, 7, 7, 6, 5, 5, 4, 3, 3, 3, 2, 2, 20, 15, 14, 13, 9, 9, 6, 5, 3, 15, 14, 14, 14, 14, 14, 14, 14, 14, 27, 24, 23, 19, 19, 16, 15, 12, 9, 30, 30, 30, 30, 30, 30, 30, 30, 30, 28, 24, 22, 19, 17, 16, 12, 12, 9, 14, 13, 12, 12, 12, 11, 10, 10, 10, 16, 16, 16, 15, 14, 14, 14, 13, 13
 |27, 26, 24, 19, 19, 14, 14, 11, 7, 25, 24, 24, 24, 23, 23, 23, 22, 22, 21, 21, 21, 20, 20, 20, 20, 19, 19, 27, 25, 24, 21, 20, 18, 16, 14, 13, 23, 20, 19, 18, 16, 15, 15, 14, 12, 21, 21, 21, 21, 21, 21, 21, 21, 21, 5, 5, 4, 4, 4, 3, 3, 2, 2, 2, 2, 2, 2, 1, 1, 1, 1, 1, 22, 22, 22, 22, 22, 21, 21, 21, 21, 16, 14, 12, 12, 9, 8, 6, 5, 2, 19, 18, 17, 14, 13, 12, 10, 8, 6, 14, 13, 13, 10, 10, 9, 6, 5, 5, 18, 17, 17, 16, 16, 15, 14, 14, 14, 12, 9, 8, 7, 7, 5, 5, 4, 3, 22, 21, 21, 20, 20, 20, 19, 18, 18, 23, 22, 22, 21, 21, 20, 20, 18, 18, 7, 7, 7, 7, 7, 7, 7, 7, 7, 24, 23, 23, 23, 21, 21, 21, 20, 19, 18, 17, 17, 17, 16, 16, 15, 15, 15, 26, 26, 21, 21, 17, 16, 13, 10, 8, 28, 26, 26, 23, 22, 21, 19, 17, 16, 16, 15, 13, 12, 11, 10, 9, 7, 6, 28, 25, 22, 21, 19, 16, 14, 14, 11, 11, 10, 9, 7, 6, 6, 4, 3, 3, 26, 25, 21, 18, 17, 12, 10, 9, 7, 23, 23, 23, 23, 22, 22, 21, 21, 21, 23, 21, 20, 17, 15, 13, 12, 11, 9, 26, 25, 22, 20, 18, 17, 15, 15, 12, 13, 11, 9, 8, 7, 6, 5, 4, 2, 26, 23, 22, 19, 16, 14, 10, 7, 5, 28, 24, 20, 17, 15, 12, 9, 5, 2, 12, 12, 12, 12, 12, 12, 12, 12, 12, 29, 29, 29, 29, 28, 28, 27, 27, 27, 22, 19, 19, 15, 14, 13, 9, 9, 6, 21, 20, 20, 20, 19, 19, 18, 18, 18, 21, 20, 19, 19, 18, 17, 17, 16, 15, 18, 18, 15, 13, 10, 8, 8, 5, 2, 3, 3, 3, 3, 3, 3, 3, 3, 3, 5, 5, 5, 5, 4, 4, 4, 4, 4, 3, 3, 3, 3, 2, 2, 2, 2, 2, 12, 11, 9, 9, 6, 5, 4, 3, 1, 13, 12, 12, 12, 12, 12, 12, 12, 12, 16, 16, 15, 13, 12, 11, 11, 10, 9, 14, 13, 12, 12, 10, 9, 7, 7, 5, 11, 10, 9, 8, 6, 5, 4, 2, 2, 19, 18, 18, 15, 13, 12, 10, 10, 8, 19, 18, 17, 16, 15, 15, 14, 13, 13, 12, 10, 10, 10, 8, 8, 7, 6, 6, 29, 25, 24, 19, 17, 15, 13, 9, 7, 27, 26, 24, 22, 21, 19, 17, 15, 14
 |24, 23, 22, 22, 21, 21, 21, 20, 20, 25, 25, 25, 25, 25, 24, 24, 24, 24, 4, 4, 4, 4, 4, 4, 4, 4, 4, 20, 19, 17, 15, 12, 12, 9, 6, 5, 18, 15, 14, 14, 11, 11, 10, 8, 7, 29, 27, 23, 20, 19, 17, 16, 11, 11, 22, 21, 20, 17, 16, 15, 13, 11, 10, 16, 14, 14, 14, 12, 12, 11, 10, 10, 27, 26, 26, 26, 25, 25, 24, 24, 24, 5, 4, 4, 4, 3, 3, 3, 2, 2, 18, 17, 14, 13, 12, 11, 8, 7, 6, 8, 8, 8, 8, 8, 8, 8, 8, 8, 12, 12, 12, 12, 12, 12, 12, 12, 12, 11, 10, 10, 9, 9, 8, 8, 8, 7, 17, 16, 16, 15, 15, 14, 13, 13, 13, 7, 7, 7, 6, 6, 5, 5, 4, 4, 10, 8, 7, 6, 6, 5, 5, 4, 3, 24, 22, 21, 20, 18, 16, 14, 13, 12, 28, 27, 27, 24, 23, 23, 22, 20, 19, 10, 10, 10, 10, 10, 9, 9, 9, 9, 27, 26, 26, 26, 25, 25, 25, 24, 24, 12, 11, 11, 11, 10, 10, 10, 10, 10, 8, 8, 8, 8, 7, 7, 7, 7, 7, 8, 7, 7, 6, 6, 6, 6, 5, 5, 11, 8, 7, 7, 6, 5, 3, 2, 1, 21, 20, 17, 14, 13, 11, 7, 6, 3, 25, 25, 25, 25, 25, 25, 25, 25, 25, 28, 24, 21, 17, 14, 11, 8, 7, 3, 11, 10, 10, 10, 9, 9, 9, 9, 9, 25, 23, 21, 21, 20, 19, 18, 16, 16, 24, 22, 19, 17, 15, 11, 11, 9, 5, 27, 26, 25, 24, 24, 23, 23, 22, 22, 23, 23, 23, 23, 23, 23, 23, 23, 23, 29, 26, 24, 19, 19, 15, 12, 10, 8, 28, 27, 26, 26, 26, 25, 25, 24, 24, 7, 6, 6, 5, 5, 5, 4, 4, 4, 13, 11, 10, 8, 7, 6, 4, 3, 1, 19, 19, 17, 16, 14, 13, 13, 12, 10, 18, 17, 17, 17, 17, 17, 17, 17, 17, 17, 16, 16, 16, 15, 15, 14, 14, 14, 23, 23, 23, 23, 23, 23, 23, 23, 23, 22, 22, 21, 21, 20, 20, 19, 19, 19, 9, 8, 7, 7, 6, 6, 5, 5, 5, 9, 8, 8, 8, 6, 6, 6, 4, 4, 15, 13, 12, 12, 11, 10, 9, 8, 6, 3, 2, 2, 2, 1, 1, 1, 1, 1, 30, 27, 26, 22, 22, 20, 16, 16, 13, 11, 10, 9, 7, 6, 6, 4, 2, 1, 22, 22, 17, 14, 14, 10, 9, 4, 3, 27, 24, 21, 19, 19, 18, 15, 12, 12
 |29, 29, 29, 29, 29, 29, 29, 29, 29, 24, 23, 20, 17, 17, 13, 13, 10, 8, 29, 25, 22, 20, 15, 14, 10, 6, 5, 25, 23, 19, 17, 13, 13, 9, 6, 3, 8, 7, 6, 6, 5, 5, 4, 3, 3, 26, 24, 20, 20, 18, 13, 13, 10, 7, 29, 26, 26, 24, 23, 21, 20, 18, 16, 23, 23, 23, 23, 22, 22, 22, 22, 22, 30, 29, 27, 26, 26, 25, 24, 23, 22, 19, 17, 17, 16, 15, 15, 15, 14, 13, 26, 25, 25, 23, 21, 20, 17, 17, 16, 27, 21, 19, 17, 15, 13, 9, 7, 4, 30, 27, 25, 24, 22, 21, 18, 15, 15, 9, 9, 9, 9, 9, 9, 9, 9, 9, 24, 23, 21, 20, 20, 20, 18, 17, 17, 25, 21, 20, 18, 13, 12, 8, 6, 5, 10, 9, 8, 8, 7, 6, 6, 5, 5, 29, 29, 29, 28, 28, 27, 26, 26, 26, 28, 28, 26, 25, 25, 22, 22, 20, 19, 15, 15, 15, 15, 14, 14, 14, 14, 14, 30, 28, 27, 26, 25, 23, 23, 22, 20, 15, 15, 15, 14, 13, 13, 12, 12, 12, 28, 24, 24, 21, 20, 17, 16, 14, 11, 24, 22, 19, 16, 16, 13, 11, 11, 8, 22, 21, 18, 17, 13, 13, 8, 6, 6, 19, 18, 18, 17, 17, 17, 16, 16, 16, 28, 27, 26, 26, 23, 23, 22, 19, 19, 10, 10, 9, 9, 8, 7, 7, 5, 5, 9, 8, 8, 8, 8, 8, 8, 8, 8, 15, 13, 13, 10, 9, 7, 6, 5, 4, 16, 14, 13, 12, 12, 10, 10, 8, 8, 29, 28, 28, 27, 27, 26, 25, 24, 24, 27, 27, 24, 21, 19, 17, 17, 13, 13, 21, 20, 20, 20, 20, 19, 19, 19, 19, 22, 20, 18, 15, 12, 11, 10, 8, 6, 29, 28, 25, 24, 24, 22, 20, 19, 18, 15, 12, 11, 9, 8, 7, 5, 4, 2, 24, 24, 24, 24, 23, 23, 23, 23, 23, 3, 2, 2, 2, 2, 1, 1, 1, 1, 17, 16, 16, 16, 16, 16, 16, 16, 16, 25, 24, 23, 23, 22, 22, 22, 21, 21, 20, 17, 14, 12, 10, 8, 6, 6, 4, 26, 25, 23, 21, 18, 16, 16, 12, 11, 22, 22, 22, 22, 22, 22, 22, 22, 22, 16, 16, 15, 14, 14, 14, 13, 12, 12, 29, 26, 26, 24, 22, 21, 19, 18, 18, 27, 26, 23, 20, 18, 14, 10, 7, 6, 20, 18, 18, 16, 15, 14, 13, 12, 11, 30, 25, 24, 18, 17, 14, 12, 8, 6, 23, 21, 21, 20, 20, 20, 19, 19, 18
 |28, 25, 21, 18, 16, 10, 10, 4, 2, 26, 25, 24, 23, 21, 19, 19, 17, 15, 7, 7, 7, 6, 6, 6, 5, 5, 5, 28, 27, 26, 25, 23, 22, 21, 20, 20, 14, 14, 14, 13, 12, 12, 12, 11, 11, 30, 26, 25, 23, 21, 19, 16, 14, 12, 14, 13, 13, 11, 9, 8, 7, 5, 5, 28, 23, 20, 19, 13, 10, 7, 6, 3, 9, 9, 9, 9, 9, 9, 9, 9, 9, 20, 19, 17, 17, 14, 12, 10, 9, 7, 15, 14, 13, 12, 11, 11, 9, 9, 8, 28, 25, 23, 23, 20, 20, 18, 17, 15, 13, 10, 9, 8, 8, 5, 4, 3, 2, 10, 10, 9, 9, 8, 8, 8, 7, 7, 17, 17, 17, 17, 17, 17, 17, 17, 17, 5, 4, 4, 3, 3, 3, 3, 2, 2, 27, 27, 27, 27, 27, 27, 27, 27, 27, 19, 19, 18, 18, 17, 17, 16, 16, 16, 18, 17, 14, 12, 11, 11, 7, 7, 4, 28, 26, 25, 23, 20, 20, 17, 16, 15, 11, 10, 10, 10, 10, 10, 10, 10, 10, 17, 16, 13, 12, 10, 8, 5, 2, 2, 12, 12, 10, 10, 9, 8, 7, 5, 5, 19, 18, 18, 17, 17, 16, 16, 14, 14, 14, 13, 13, 10, 9, 9, 8, 6, 4, 11, 9, 9, 8, 6, 5, 4, 4, 2, 28, 25, 24, 24, 21, 19, 19, 17, 15, 23, 19, 17, 15, 11, 9, 6, 6, 2, 27, 25, 23, 20, 17, 16, 15, 11, 11, 19, 19, 19, 19, 19, 19, 19, 19, 19, 20, 19, 19, 18, 18, 17, 16, 16, 16, 11, 10, 10, 10, 10, 10, 10, 10, 10, 26, 22, 21, 20, 18, 16, 16, 13, 12, 25, 24, 24, 23, 22, 19, 19, 18, 16, 28, 25, 23, 22, 21, 19, 17, 17, 15, 14, 13, 13, 12, 11, 11, 11, 10, 10, 26, 26, 25, 24, 24, 23, 22, 21, 21, 30, 29, 28, 28, 28, 27, 26, 26, 26, 9, 8, 7, 6, 5, 5, 3, 2, 2, 13, 13, 11, 10, 9, 8, 8, 6, 5, 26, 25, 22, 21, 19, 18, 15, 14, 13, 27, 27, 26, 26, 26, 25, 25, 24, 24, 11, 9, 8, 8, 5, 4, 3, 3, 1, 23, 22, 20, 18, 17, 14, 12, 10, 8, 12, 12, 11, 9, 9, 7, 7, 5, 4, 13, 13, 12, 12, 11, 11, 10, 10, 9, 28, 25, 24, 22, 21, 19, 18, 16, 15, 30, 30, 30, 30, 30, 30, 30, 30, 30, 13, 12, 10, 9, 8, 5, 5, 3, 1, 18, 18, 15, 14, 10, 8, 8, 5, 3|];